Maximize
2.0 x0 +4.0 x1 +6.0 x2 +8.0 x3 +9.0 x4 +11.0 x5 +13.0 x6 
Subject To
-2.0 x0 +0.0 x1 -2.0 x2 +0.0 x3 -1.0 x4 +1.0 x5 -1.0 x6  <= 11
-2.0 x0 +0.0 x1 -2.0 x2 +0.0 x3 -1.0 x4 +1.0 x5 -1.0 x6  >= -1
2.0 x0 +0.0 x1 +2.0 x2 +0.0 x3 -1.0 x4 +1.0 x5 -1.0 x6  <= 11
2.0 x0 +0.0 x1 +2.0 x2 +0.0 x3 -1.0 x4 +1.0 x5 -1.0 x6  >= -1
-2.0 x0 +0.0 x1 +2.0 x2 +0.0 x3 -1.0 x4 -3.0 x5 -1.0 x6  <= 11
-2.0 x0 +0.0 x1 +2.0 x2 +0.0 x3 -1.0 x4 -3.0 x5 -1.0 x6  >= -1
2.0 x0 +0.0 x1 -2.0 x2 +0.0 x3 -1.0 x4 -3.0 x5 -1.0 x6  <= 11
2.0 x0 +0.0 x1 -2.0 x2 +0.0 x3 -1.0 x4 -3.0 x5 -1.0 x6  >= -1
2.0 x0 +4.0 x1 +2.0 x2 +0.0 x3 +1.0 x4 -1.0 x5 -3.0 x6  <= 11
2.0 x0 +4.0 x1 +2.0 x2 +0.0 x3 +1.0 x4 -1.0 x5 -3.0 x6  >= -1
-2.0 x0 -4.0 x1 -2.0 x2 +0.0 x3 +1.0 x4 -1.0 x5 -3.0 x6  <= 11
-2.0 x0 -4.0 x1 -2.0 x2 +0.0 x3 +1.0 x4 -1.0 x5 -3.0 x6  >= -1
2.0 x0 +4.0 x1 +6.0 x2 +8.0 x3 +9.0 x4 +11.0 x5 +13.0 x6  <= 11
2.0 x0 +4.0 x1 +6.0 x2 +8.0 x3 +9.0 x4 +11.0 x5 +13.0 x6  >= -1
-2.0 x0 -4.0 x1 -6.0 x2 -8.0 x3 -7.0 x4 -5.0 x5 -3.0 x6  <= 11
-2.0 x0 -4.0 x1 -6.0 x2 -8.0 x3 -7.0 x4 -5.0 x5 -3.0 x6  >= -1
2.0 x0 +0.0 x1 +2.0 x2 +0.0 x3 -1.0 x4 +1.0 x5 -1.0 x6  <= 11
2.0 x0 +0.0 x1 +2.0 x2 +0.0 x3 -1.0 x4 +1.0 x5 -1.0 x6  >= -1
-2.0 x0 +0.0 x1 -2.0 x2 +0.0 x3 -1.0 x4 +1.0 x5 -1.0 x6  <= 11
-2.0 x0 +0.0 x1 -2.0 x2 +0.0 x3 -1.0 x4 +1.0 x5 -1.0 x6  >= -1
2.0 x0 +0.0 x1 -2.0 x2 +0.0 x3 -1.0 x4 -3.0 x5 -1.0 x6  <= 11
2.0 x0 +0.0 x1 -2.0 x2 +0.0 x3 -1.0 x4 -3.0 x5 -1.0 x6  >= -1
-2.0 x0 +0.0 x1 +2.0 x2 +0.0 x3 -1.0 x4 -3.0 x5 -1.0 x6  <= 11
-2.0 x0 +0.0 x1 +2.0 x2 +0.0 x3 -1.0 x4 -3.0 x5 -1.0 x6  >= -1
-2.0 x0 -4.0 x1 -2.0 x2 +0.0 x3 +1.0 x4 -1.0 x5 -3.0 x6  <= 11
-2.0 x0 -4.0 x1 -2.0 x2 +0.0 x3 +1.0 x4 -1.0 x5 -3.0 x6  >= -1
2.0 x0 +4.0 x1 +2.0 x2 +0.0 x3 +1.0 x4 -1.0 x5 -3.0 x6  <= 11
2.0 x0 +4.0 x1 +2.0 x2 +0.0 x3 +1.0 x4 -1.0 x5 -3.0 x6  >= -1
-2.0 x0 -4.0 x1 -6.0 x2 -8.0 x3 -7.0 x4 -5.0 x5 -3.0 x6  <= 11
-2.0 x0 -4.0 x1 -6.0 x2 -8.0 x3 -7.0 x4 -5.0 x5 -3.0 x6  >= -1
0.0 x0 +0.0 x1 +0.0 x2 +0.0 x3 +1.0 x4 -1.0 x5 +1.0 x6  <= 11
0.0 x0 +0.0 x1 +0.0 x2 +0.0 x3 +1.0 x4 -1.0 x5 +1.0 x6  >= -1
0.0 x0 +0.0 x1 +0.0 x2 +0.0 x3 +1.0 x4 +3.0 x5 +1.0 x6  <= 11
0.0 x0 +0.0 x1 +0.0 x2 +0.0 x3 +1.0 x4 +3.0 x5 +1.0 x6  >= -1
0.0 x0 +0.0 x1 +0.0 x2 +0.0 x3 -1.0 x4 +1.0 x5 +3.0 x6  <= 11
0.0 x0 +0.0 x1 +0.0 x2 +0.0 x3 -1.0 x4 +1.0 x5 +3.0 x6  >= -1
0.0 x0 +0.0 x1 +0.0 x2 +0.0 x3 -1.0 x4 -3.0 x5 -5.0 x6  <= 11
0.0 x0 +0.0 x1 +0.0 x2 +0.0 x3 -1.0 x4 -3.0 x5 -5.0 x6  >= -1
-2.0 x0 +0.0 x1 +0.0 x2 +0.0 x3 +1.0 x4 +1.0 x5 +1.0 x6  <= 11
-2.0 x0 +0.0 x1 +0.0 x2 +0.0 x3 +1.0 x4 +1.0 x5 +1.0 x6  >= -1
0.0 x0 +0.0 x1 +2.0 x2 +4.0 x3 +3.0 x4 +3.0 x5 +3.0 x6  <= 11
0.0 x0 +0.0 x1 +2.0 x2 +4.0 x3 +3.0 x4 +3.0 x5 +3.0 x6  >= -1
0.0 x0 +0.0 x1 -2.0 x2 -4.0 x3 -5.0 x4 -5.0 x5 -5.0 x6  <= 11
0.0 x0 +0.0 x1 -2.0 x2 -4.0 x3 -5.0 x4 -5.0 x5 -5.0 x6  >= -1
2.0 x0 +0.0 x1 +0.0 x2 +0.0 x3 +1.0 x4 +1.0 x5 +1.0 x6  <= 11
2.0 x0 +0.0 x1 +0.0 x2 +0.0 x3 +1.0 x4 +1.0 x5 +1.0 x6  >= -1
2.0 x0 +4.0 x1 +4.0 x2 +4.0 x3 +3.0 x4 +3.0 x5 +3.0 x6  <= 11
2.0 x0 +4.0 x1 +4.0 x2 +4.0 x3 +3.0 x4 +3.0 x5 +3.0 x6  >= -1
0.0 x0 +0.0 x1 -2.0 x2 +0.0 x3 +1.0 x4 +1.0 x5 +1.0 x6  <= 11
0.0 x0 +0.0 x1 -2.0 x2 +0.0 x3 +1.0 x4 +1.0 x5 +1.0 x6  >= -1
0.0 x0 +0.0 x1 +2.0 x2 +0.0 x3 +1.0 x4 +1.0 x5 +1.0 x6  <= 11
0.0 x0 +0.0 x1 +2.0 x2 +0.0 x3 +1.0 x4 +1.0 x5 +1.0 x6  >= -1
-2.0 x0 -4.0 x1 -4.0 x2 -4.0 x3 -5.0 x4 -5.0 x5 -5.0 x6  <= 11
-2.0 x0 -4.0 x1 -4.0 x2 -4.0 x3 -5.0 x4 -5.0 x5 -5.0 x6  >= -1
End
